TOUR_SECTION
1
114
201
91
104
158
112
29
41
16
33
162
189
98
124
165
72
15
138
182
7
110
2
195
89
24
109
103
144
129
44
84
118
65
170
38
86
192
154
57
74
30
17
9
155
137
59
56
63
147
28
10
92
139
113
23
78
172
128
47
95
146
64
76
117
136
54
70
194
67
81
52
116
159
119
83
6
79
82
36
149
50
45
75
120
80
106
43
179
173
126
183
62
177
121
150
93
14
156
105
187
18
151
69
108
171
184
152
102
31
35
60
87
20
200
131
27
5
49
135
174
51
85
42
100
3
145
12
40
111
197
125
13
115
143
157
11
188
34
160
132
37
180
190
19
153
140
22
21
193
25
148
130
169
127
26
186
32
39
196
181
53
199
61
168
66
133
90
164
134
4
96
178
68
176
73
58
175
163
48
142
141
185
166
71
107
101
77
99
122
46
94
88
167
55
198
8
123
161
97
191
-1
EOF